; benchmark generated from python API
(set-info :status unknown)
(declare-fun S_2 () Real)
(declare-fun S_1 () Real)
(declare-fun C () Real)
(declare-fun S_0 () Real)
(declare-fun A_0 () Real)
(declare-fun L_0 () Real)
(declare-fun S_4 () Real)
(declare-fun S_3 () Real)
(declare-fun A_2 () Real)
(declare-fun L_1 () Real)
(declare-fun L0 () Real)
(declare-fun A_3 () Real)
(declare-fun A_4 () Real)
(declare-fun Q_4 () Real)
(declare-fun A_1 () Real)
(assert
 (let (($x37 (>= L0 0.0)))
 (let (($x575 (>= C 5.0)))
 (let (($x18470 (<= (+ (* (- 1.0) C) (* (- 1.0) A_2) A_3) 0.0)))
 (let (($x18447 (<= (+ (* (- 1.0) C) A_4 (* (- 1.0) A_3)) 0.0)))
 (let (($x17579 (not $x18447)))
 (let (($x41476 (or (not (<= 0.0 (+ A_4 (* (- 1.0) Q_4) (* (- 1.0) A_3)))) $x17579 $x18470)))
 (let ((?x338 (* (- 1.0) S_1)))
 (let ((?x525 (* (- 1.0) A_3)))
 (let ((?x517 (* (- 1.0) Q_4)))
 (let ((?x2157 (* (- 3.0) C)))
 (let (($x19591 (not (<= 0.0 (+ (* (- 2.0) C) ?x517 S_4 ?x338)))))
 (let (($x41312 (or $x18470 $x19591 (not (<= 0.0 (+ ?x2157 A_4 ?x517 ?x525 S_4 ?x338))))))
 (let (($x21922 (<= 0.0 (+ (* (- 1.0) C) A_4 ?x517 ?x525 S_4 (* (- 1.0) S_3)))))
 (let (($x21886 (not (<= 0.0 (+ ?x2157 A_4 ?x517 ?x525 L_0 (* (- 1.0) A_0) S_4)))))
 (let (($x19104 (not (<= 0.0 (+ (* (- 2.0) C) ?x517 L_0 (* (- 1.0) A_0) S_4)))))
 (let (($x21716 (<= 0.0 (+ (* (- 4.0) C) A_4 ?x517 ?x525 S_4 (* (- 1.0) S_0)))))
 (let (($x19587 (not (<= 0.0 (+ ?x2157 ?x517 S_4 (* (- 1.0) S_0))))))
 (let (($x21872 (<= 0.0 (+ (* (- 2.0) C) (* (- 1.0) A_1) A_4 ?x517 ?x525 L_0 S_4))))
 (let (($x20950 (not (<= 0.0 (+ (* (- 1.0) C) (* (- 1.0) A_1) ?x517 L_0 S_4)))))
 (let (($x21898 (<= 0.0 (+ (* (- 2.0) C) A_4 ?x517 ?x525 S_4 (* (- 1.0) S_2)))))
 (let (($x21423 (<= 0.0 (+ ?x2157 ?x517 A_4 (* (- 1.0) A_2) S_4 (* (- 1.0) S_2)))))
 (let (($x21424 (not $x21423)))
 (let (($x20257 (not (<= 0.0 (+ (* (- 1.0) C) ?x517 S_4 (* (- 1.0) S_2))))))
 (let (($x20915 (not (<= 0.0 (+ C ?x517)))))
 (let (($x19268 (not $x18470)))
 (let (($x18724 (<= (+ (* (- 2.0) C) A_4 (* (- 1.0) A_2)) 0.0)))
 (let (($x21397 (<= 0.0 (+ (* (- 4.0) C) ?x517 A_4 (* (- 1.0) A_2) S_4 ?x338))))
 (let (($x21414 (<= 0.0 (+ L_0 ?x2157 (* (- 1.0) A_1) ?x517 A_4 (* (- 1.0) A_2) S_4))))
 (let (($x19546 (not $x18724)))
 (let ((?x1001 (* (- 1.0) A_0)))
 (let ((?x529 (* (- 1.0) A_2)))
 (let ((?x2182 (* (- 4.0) C)))
 (let (($x40583 (or $x19104 $x19268 (not (<= 0.0 (+ L_0 ?x2182 ?x517 A_4 ?x529 ?x1001 S_4))))))
 (let (($x21440 (<= 0.0 (+ (* (- 2.0) C) ?x517 A_4 ?x529 S_4 (* (- 1.0) S_3)))))
 (let (($x5065 (not (<= 0.0 (+ ?x517 S_4 (* (- 1.0) S_3))))))
 (let (($x21375 (<= 0.0 (+ (* (- 5.0) C) ?x517 A_4 ?x529 S_4 (* (- 1.0) S_0)))))
 (let (($x21376 (not $x21375)))
 (let ((?x321 (* (- 1.0) C)))
 (let ((?x495 (* (- 1.0) L_1)))
 (let ((?x18811 (+ ?x517 A_4 ?x495 ?x321)))
 (let (($x18830 (<= S_3 ?x18811)))
 (let (($x978 (= Q_4 0.0)))
 (let (($x19130 (<= (+ (* (- 1.0) L_0) A_1 (* 2.0 C) (* (- 1.0) S_4)) 0.0)))
 (let (($x18960 (<= (+ (* 3.0 C) (* (- 1.0) S_4) S_0) 0.0)))
 (let (($x41207 (or $x978 (<= S_0 (+ ?x517 A_4 ?x495 ?x2182)) (<= 0.0 (+ ?x2157 (* (- 1.0) A_1) ?x517 A_4)))))
 (let (($x18611 (<= (+ (* 2.0 C) S_0 (* (- 1.0) S_3)) 0.0)))
 (let (($x40215 (or (<= (+ (* (- 1.0) L_0) A_1 C (* (- 1.0) S_3)) 0.0) $x18611)))
 (let (($x18621 (<= (+ C S_0 (* (- 1.0) S_2)) 0.0)))
 (let ((?x604 (* (- 1.0) L_0)))
 (let ((?x906 (+ A_0 ?x604)))
 (let ((?x19028 (+ ?x517 ?x321 ?x495 A_1)))
 (let (($x19029 (<= ?x19028 ?x906)))
 (let ((?x18752 (+ ?x517 A_4 ?x495 ?x2182)))
 (let (($x18794 (<= ?x18752 ?x906)))
 (let (($x18241 (<= (+ (* (- 2.0) C) ?x495 A_1 A_4 ?x517 ?x525 L_0 ?x1001) 0.0)))
 (let (($x489 (<= (+ ?x321 A_2 (* (- 1.0) A_1)) 0.0)))
 (let (($x487 (not $x489)))
 (let (($x19137 (>= S_1 ?x19028)))
 (let (($x19022 (>= S_0 (+ ?x517 (* (- 2.0) C) ?x495 A_1))))
 (let (($x54 (= L_1 L_0)))
 (let (($x39845 (or $x54 $x978 (<= S_1 (+ (* (- 2.0) C) ?x495 A_1 ?x517 A_4 ?x529)))))
 (let (($x17976 (<= (+ ?x321 L_1 (* (- 1.0) A_1) Q_4 (* (- 1.0) A_4) A_2 S_4) 0.0)))
 (let ((?x18967 (+ ?x517 C ?x495 A_1)))
 (let (($x19404 (>= S_3 ?x18967)))
 (let ((?x4483 (+ ?x517 ?x495 A_1)))
 (let (($x4484 (>= S_2 ?x4483)))
 (let (($x39862 (or $x489 $x4484 $x19268 (>= S_2 (+ (* (- 2.0) C) ?x495 A_1 ?x517 A_4 ?x529)))))
 (let (($x19017 (>= S_4 (+ ?x517 (* 2.0 C) ?x495 A_1))))
 (let ((?x7565 (+ ?x495 A_1 ?x517 A_4 ?x529)))
 (let (($x7593 (>= S_4 ?x7565)))
 (let (($x18944 (<= (+ (* (- 2.0) C) ?x495 A_1 A_4 ?x517 ?x525 ?x338) 0.0)))
 (let (($x18726 (<= (+ ?x2157 ?x495 A_1 A_4 ?x517 ?x525 (* (- 1.0) S_0)) 0.0)))
 (let (($x17535 (<= (+ ?x321 ?x495 A_1 A_4 ?x517 ?x525 (* (- 1.0) S_2)) 0.0)))
 (let (($x2343 (<= (+ ?x495 A_1 A_4 ?x517 ?x525 (* (- 1.0) S_3)) 0.0)))
 (let (($x18403 (<= (+ C ?x495 A_1 A_4 ?x517 ?x525 (* (- 1.0) S_4)) 0.0)))
 (let (($x18934 (<= (+ C L_1 (* (- 1.0) A_1) (* (- 1.0) A_4) Q_4 A_3 S_1) 0.0)))
 (let (($x845 (<= 0.0 (+ ?x495 L_0))))
 (let (($x18929 (<= (+ ?x321 L_1 (* (- 1.0) A_1) (* (- 1.0) A_4) Q_4 A_3 S_3) 0.0)))
 (let ((?x521 (* (- 1.0) A_4)))
 (let ((?x533 (* (- 1.0) A_1)))
 (let ((?x1546 (* (- 2.0) C)))
 (let (($x18812 (>= S_4 ?x18811)))
 (let (($x356 (<= (+ ?x1546 ?x533 A_3) 0.0)))
 (let (($x17759 (not $x356)))
 (let (($x40102 (or $x54 (<= (+ (* 2.0 C) L_1 ?x533 ?x521 Q_4 A_3 S_0) 0.0))))
 (let (($x2529 (or $x978 (not (<= Q_4 0.0)))))
 (let (($x36 (>= L_0 L0)))
 (let (($x111 (>= S_1 S_0)))
 (let (($x114 (>= S_2 S_1)))
 (let (($x117 (>= S_3 S_2)))
 (let (($x120 (>= S_4 S_3)))
 (let (($x122 (>= A_1 A_0)))
 (let (($x124 (>= A_3 A_2)))
 (let (($x125 (>= A_4 A_3)))
 (and (<= (+ A_1 ?x495) S_4) $x125 $x124 $x122 $x120 $x117 $x114 $x111 $x36 (<= (+ ?x2157 ?x338 S_3) 0.0) $x2529 (or $x54 (not (<= 0.0 (+ ?x321 L_1 ?x533 S_4)))) (or $x54 (<= (+ L_1 ?x533 ?x521 Q_4 A_3 S_2) 0.0)) $x40102 (or $x54 (not $x845)) (or $x54 $x18960) (or $x54 (<= S_2 ?x18967)) (or $x18470 (<= (+ ?x321 A_4 ?x517 ?x525) (- 5.0)) $x19029) (or $x54 (<= S_1 ?x4483)) (or $x487 $x18447 (<= 0.0 (+ ?x521 (* 3.0 C) A_1)) $x19017) (or $x18470 (<= (+ ?x321 A_4 ?x517 ?x525) (- 5.0)) $x19017) (or $x54 (<= S_4 (+ ?x517 (* 3.0 C) ?x495 A_1))) (or $x54 (<= (+ Q_4 L_1 ?x1546 ?x533 S_3) 0.0)) (<= (+ L_0 ?x533 S_1) 0.0) (or $x487 $x18447 (>= S_0 (+ ?x517 A_4 ?x495 (* (- 5.0) C))) $x19022) (or $x487 $x17759 (>= S_0 (+ ?x517 A_4 ?x495 (* (- 5.0) C))) $x19022) (or $x487 $x4484 $x17535 (>= S_2 (+ ?x517 A_4 ?x495 ?x2157))) (or $x356 $x487 $x18403 $x19017) (or $x978 (<= S_2 (+ ?x517 A_4 ?x495 ?x1546))) (or $x978 (<= S_1 (+ ?x517 A_4 ?x495 ?x2157))) (or $x487 $x17759 (>= S_3 (+ ?x517 A_4 ?x495 ?x1546)) $x19404) (or (<= 0.0 (+ ?x321 L_1 ?x533 S_4)) $x18621) (or $x487 $x18447 $x18812 $x19029) (or $x487 $x18447 $x18812 $x19137) (or $x54 (<= S_0 ?x19028)) (or $x18447 (<= (+ ?x1546 ?x517 A_4 ?x529) (- 5.0)) $x19022) (or $x487 $x17759 $x18812 $x19017) (or $x487 $x18447 $x18794 $x19029) (or $x356 $x487 $x2343 $x19404) (or $x356 $x487 $x18726 $x19022) (or $x356 $x487 $x18241 $x19029) (or $x845 (<= (+ ?x1546 L_1 ?x533 ?x521 Q_4 A_3 S_4) 0.0)) (or $x845 $x18929) (or $x845 $x18934) (or $x487 (>= S_1 ?x18752) $x18944 $x19137) (or $x489 $x4484 $x7593 $x18447) (or $x489 $x18403 $x18470 $x19017) (or $x489 $x2343 $x18470 $x19404) (or $x489 $x4484 $x17535 $x18470) (or $x489 $x18447 $x18470 $x19029) (or $x489 $x18241 $x18470 $x19029) (or $x489 $x18470 $x18726 $x19022) (or $x489 $x18470 $x18944 $x19137) (or $x489 $x7593 $x18447 $x19404) (or $x489 $x7593 $x19017 $x19268) $x39862 (or $x489 $x19268 $x19404 (>= S_3 (+ ?x321 ?x495 A_1 ?x517 A_4 ?x529))) (or $x489 $x19029 $x19268 (<= (+ ?x2157 ?x495 A_1 ?x517 A_4 ?x529) ?x906)) (or $x54 $x17976) (or $x54 $x978 (<= S_3 ?x7565)) (or $x54 $x978 (<= S_0 (+ ?x2157 ?x495 A_1 ?x517 A_4 ?x529))) $x39845 (or $x54 $x978 (<= S_2 (+ ?x321 ?x495 A_1 ?x517 A_4 ?x529))) (or $x489 $x19022 $x19268 (>= S_0 (+ ?x2182 ?x495 A_1 ?x517 A_4 ?x529))) (or $x489 $x19137 $x19268 (>= S_1 (+ ?x2157 ?x495 A_1 ?x517 A_4 ?x529))) (<= (+ ?x1546 S_4 (* (- 1.0) S_3)) 0.0) (<= (+ ?x2157 S_4 (* (- 1.0) S_2)) 0.0) (or $x18470 $x18830) (or $x487 $x18241 $x18794 $x19029) (<= S_4 (+ ?x495 A_4 ?x517)) (or $x54 $x18611) (<= (+ ?x2182 L_0 ?x1001 S_4) 0.0) (or $x18447 $x18470 $x20257) (or $x18447 $x18470 $x20915) (or $x18447 $x18470 $x19591) (or $x18447 $x18470 $x19104) (or $x18447 $x18470 $x20950) (or (<= (+ ?x604 A_1 (* (- 1.0) S_2)) 0.0) $x18621) $x40215 (<= (+ ?x2182 S_4 ?x338) 0.0) (<= (+ L_0 ?x533 ?x2157 S_4) 0.0) (<= (+ L_0 ?x533 ?x1546 S_3) 0.0) (<= (+ (* (- 5.0) C) S_4 (* (- 1.0) S_0)) 0.0) (<= (+ L_0 ?x533 ?x321 S_2) 0.0) (or $x5065 $x18447 $x18470) $x41207 (or $x18960 $x19130) (or $x978 $x18830) (or $x18447 $x19587 $x21376) (or $x19268 $x19587 $x21376) (or $x19268 $x19546 (not (<= 0.0 (+ ?x321 ?x517 A_4 ?x529)))) (or $x19268 $x20257 $x21424) (or $x5065 $x19268 (not $x21440)) $x40583 (or $x19268 $x19546 (not $x21414)) (or $x19268 $x19591 (not $x21397)) (or $x18724 $x19268 $x20950) (or $x18724 $x19268 $x20915) (or $x20257 $x21424 (not $x21898)) (or $x18470 $x20950 (not $x21872)) (or $x18470 $x19587 (not $x21716)) (or $x18470 $x19104 $x21886) (or $x17579 $x18470 (not $x21922)) $x41312 $x41476 $x575 $x37 (not (>= (+ L_1 ?x529 S_4) 0.0)) (<= (+ ?x2157 L_0 ?x1001 S_3) 0.0) (<= (+ ?x1546 S_3 (* (- 1.0) S_2)) 0.0) (<= (+ ?x2182 (* (- 1.0) S_0) S_3) 0.0) (<= (+ L_0 ?x1001 S_0) 0.0) (<= (+ C S_1 (* (- 1.0) S_3)) 0.0) (<= (+ (* 2.0 C) (* (- 1.0) S_4) S_1) 0.0) (<= (+ C (* (- 1.0) S_4) S_2) 0.0) (<= (+ ?x1546 L_0 ?x1001 S_2) 0.0) (<= (+ ?x2157 (* (- 1.0) S_0) S_2) 0.0) (<= (+ ?x321 L_0 ?x1001 S_1) 0.0) (<= (+ ?x1546 (* (- 1.0) S_0) S_1) 0.0) (<= (+ ?x1546 ?x338 S_2) 0.0)))))))))))))))))))))))))))))))))))))))))))))))))))))))))))))))))))))))))))))))))))))))))))))))))
(check-sat)
